# Solution for model combustion_srl_ilp
# Objective value = 5.5335330856505301e+01
Z_372_0_0 0
Z_372_0_1 1
Z_372_0_2 0
Z_372_0_3 0
Z_372_0_4 0
Z_152_12_0 1
Z_152_12_1 0
Z_152_12_2 0
Z_152_12_3 0
Z_152_12_4 0
Z_152_2_0 0
Z_152_2_1 0
Z_152_2_2 0
Z_152_2_3 0
Z_152_2_4 1
Z_152_3_0 0
Z_152_3_1 0
Z_152_3_2 0
Z_152_3_3 0
Z_152_3_4 1
Z_152_5_0 0
Z_152_5_1 1
Z_152_5_2 0
Z_152_5_3 0
Z_152_5_4 0
Z_152_1_0 0
Z_152_1_1 0
Z_152_1_2 0
Z_152_1_3 0
Z_152_1_4 1
Z_152_4_0 0
Z_152_4_1 0
Z_152_4_2 0
Z_152_4_3 0
Z_152_4_4 1
Z_152_0_0 0
Z_152_0_1 0
Z_152_0_2 0
Z_152_0_3 0
Z_152_0_4 1
Z_164_0_0 0
Z_164_0_1 0
Z_164_0_2 1
Z_164_0_3 0
Z_164_0_4 0
Z_80_4_0 0
Z_80_4_1 0
Z_80_4_2 0
Z_80_4_3 0
Z_80_4_4 1
Z_80_3_0 0
Z_80_3_1 0
Z_80_3_2 0
Z_80_3_3 0
Z_80_3_4 1
Z_80_2_0 0
Z_80_2_1 0
Z_80_2_2 0
Z_80_2_3 0
Z_80_2_4 1
Z_80_1_0 0
Z_80_1_1 0
Z_80_1_2 0
Z_80_1_3 0
Z_80_1_4 1
Z_80_6_0 0
Z_80_6_1 0
Z_80_6_2 0
Z_80_6_3 0
Z_80_6_4 1
Z_80_5_0 0
Z_80_5_1 0
Z_80_5_2 0
Z_80_5_3 0
Z_80_5_4 1
Z_124_0_0 0
Z_124_0_1 0
Z_124_0_2 0
Z_124_0_3 1
Z_124_0_4 0
Z_177_0_0 0
Z_177_0_1 1
Z_177_0_2 0
Z_177_0_3 0
Z_177_0_4 0
Z_220_0_0 0
Z_220_0_1 0
Z_220_0_2 1
Z_220_0_3 0
Z_220_0_4 0
Z_165_0_0 0
Z_165_0_1 1
Z_165_0_2 0
Z_165_0_3 0
Z_165_0_4 0
Z_24_0_0 0
Z_24_0_1 1
Z_24_0_2 0
Z_24_0_3 0
Z_24_0_4 0
Z_180_1_0 0
Z_180_1_1 0
Z_180_1_2 1
Z_180_1_3 0
Z_180_1_4 0
Z_180_0_0 1
Z_180_0_1 0
Z_180_0_2 0
Z_180_0_3 0
Z_180_0_4 0
Z_21_1_0 0
Z_21_1_1 0
Z_21_1_2 1
Z_21_1_3 0
Z_21_1_4 0
Z_432_7_0 0
Z_432_7_1 0
Z_432_7_2 0
Z_432_7_3 0
Z_432_7_4 1
Z_432_6_0 0
Z_432_6_1 0
Z_432_6_2 0
Z_432_6_3 0
Z_432_6_4 1
Z_432_3_0 0
Z_432_3_1 0
Z_432_3_2 0
Z_432_3_3 0
Z_432_3_4 1
Z_432_0_0 0
Z_432_0_1 1
Z_432_0_2 0
Z_432_0_3 0
Z_432_0_4 0
Z_432_5_0 0
Z_432_5_1 0
Z_432_5_2 0
Z_432_5_3 0
Z_432_5_4 1
Z_432_2_0 0
Z_432_2_1 0
Z_432_2_2 0
Z_432_2_3 0
Z_432_2_4 1
Z_432_4_0 0
Z_432_4_1 0
Z_432_4_2 0
Z_432_4_3 0
Z_432_4_4 1
Z_430_0_0 0
Z_430_0_1 1
Z_430_0_2 0
Z_430_0_3 0
Z_430_0_4 0
Z_69_0_0 1
Z_69_0_1 0
Z_69_0_2 0
Z_69_0_3 0
Z_69_0_4 0
Z_69_1_0 0
Z_69_1_1 0
Z_69_1_2 1
Z_69_1_3 0
Z_69_1_4 0
Z_321_0_0 0
Z_321_0_1 1
Z_321_0_2 0
Z_321_0_3 0
Z_321_0_4 0
Z_174_1_0 0
Z_174_1_1 0
Z_174_1_2 0
Z_174_1_3 0
Z_174_1_4 1
Z_174_2_0 0
Z_174_2_1 0
Z_174_2_2 0
Z_174_2_3 0
Z_174_2_4 1
Z_174_0_0 0
Z_174_0_1 0
Z_174_0_2 0
Z_174_0_3 0
Z_174_0_4 1
Z_174_3_0 0
Z_174_3_1 0
Z_174_3_2 0
Z_174_3_3 1
Z_174_3_4 0
Z_174_5_0 0
Z_174_5_1 0
Z_174_5_2 0
Z_174_5_3 0
Z_174_5_4 1
Z_174_4_0 0
Z_174_4_1 0
Z_174_4_2 0
Z_174_4_3 0
Z_174_4_4 1
Z_556_4_0 0
Z_556_4_1 0
Z_556_4_2 0
Z_556_4_3 0
Z_556_4_4 1
Z_556_3_0 0
Z_556_3_1 0
Z_556_3_2 0
Z_556_3_3 0
Z_556_3_4 1
Z_556_1_0 0
Z_556_1_1 0
Z_556_1_2 0
Z_556_1_3 0
Z_556_1_4 1
Z_556_0_0 0
Z_556_0_1 0
Z_556_0_2 0
Z_556_0_3 0
Z_556_0_4 1
Z_556_5_0 0
Z_556_5_1 0
Z_556_5_2 0
Z_556_5_3 1
Z_556_5_4 0
Z_556_2_0 0
Z_556_2_1 0
Z_556_2_2 0
Z_556_2_3 0
Z_556_2_4 1
Z_56_4_0 0
Z_56_4_1 0
Z_56_4_2 1
Z_56_4_3 0
Z_56_4_4 0
Z_56_3_0 0
Z_56_3_1 0
Z_56_3_2 0
Z_56_3_3 0
Z_56_3_4 1
Z_56_1_0 0
Z_56_1_1 0
Z_56_1_2 0
Z_56_1_3 0
Z_56_1_4 1
Z_56_2_0 0
Z_56_2_1 0
Z_56_2_2 0
Z_56_2_3 0
Z_56_2_4 1
Z_56_0_0 0
Z_56_0_1 0
Z_56_0_2 0
Z_56_0_3 1
Z_56_0_4 0
Z_398_1_0 0
Z_398_1_1 0
Z_398_1_2 1
Z_398_1_3 0
Z_398_1_4 0
Z_427_12_0 1
Z_427_12_1 0
Z_427_12_2 0
Z_427_12_3 0
Z_427_12_4 0
Z_427_2_0 0
Z_427_2_1 0
Z_427_2_2 0
Z_427_2_3 0
Z_427_2_4 1
Z_427_3_0 0
Z_427_3_1 0
Z_427_3_2 0
Z_427_3_3 0
Z_427_3_4 1
Z_427_5_0 0
Z_427_5_1 1
Z_427_5_2 0
Z_427_5_3 0
Z_427_5_4 0
Z_427_1_0 0
Z_427_1_1 0
Z_427_1_2 0
Z_427_1_3 0
Z_427_1_4 1
Z_427_4_0 0
Z_427_4_1 0
Z_427_4_2 0
Z_427_4_3 0
Z_427_4_4 1
Z_427_0_0 0
Z_427_0_1 0
Z_427_0_2 0
Z_427_0_3 0
Z_427_0_4 1
Z_157_0_0 0
Z_157_0_1 0
Z_157_0_2 0
Z_157_0_3 1
Z_157_0_4 0
Z_382_5_0 0
Z_382_5_1 0
Z_382_5_2 0
Z_382_5_3 0
Z_382_5_4 1
Z_382_1_0 0
Z_382_1_1 0
Z_382_1_2 0
Z_382_1_3 0
Z_382_1_4 1
Z_382_2_0 0
Z_382_2_1 0
Z_382_2_2 0
Z_382_2_3 0
Z_382_2_4 1
Z_382_6_0 0
Z_382_6_1 0
Z_382_6_2 0
Z_382_6_3 1
Z_382_6_4 0
Z_382_3_0 0
Z_382_3_1 0
Z_382_3_2 0
Z_382_3_3 0
Z_382_3_4 1
Z_382_0_0 0
Z_382_0_1 0
Z_382_0_2 0
Z_382_0_3 0
Z_382_0_4 1
Z_382_4_0 0
Z_382_4_1 0
Z_382_4_2 0
Z_382_4_3 0
Z_382_4_4 1
Z_394_0_0 0
Z_394_0_1 0
Z_394_0_2 0
Z_394_0_3 1
Z_394_0_4 0
Z_676_0_0 0
Z_676_0_1 0
Z_676_0_2 0
Z_676_0_3 1
Z_676_0_4 0
Z_426_1_0 0
Z_426_1_1 0
Z_426_1_2 0
Z_426_1_3 0
Z_426_1_4 1
Z_655_0_0 0
Z_655_0_1 1
Z_655_0_2 0
Z_655_0_3 0
Z_655_0_4 0
Z_111_4_0 0
Z_111_4_1 0
Z_111_4_2 0
Z_111_4_3 0
Z_111_4_4 1
Z_111_2_0 0
Z_111_2_1 0
Z_111_2_2 0
Z_111_2_3 0
Z_111_2_4 1
Z_111_5_0 0
Z_111_5_1 0
Z_111_5_2 0
Z_111_5_3 0
Z_111_5_4 1
Z_111_3_0 0
Z_111_3_1 0
Z_111_3_2 0
Z_111_3_3 0
Z_111_3_4 1
Z_111_0_0 0
Z_111_0_1 1
Z_111_0_2 0
Z_111_0_3 0
Z_111_0_4 0
Z_111_1_0 0
Z_111_1_1 0
Z_111_1_2 0
Z_111_1_3 0
Z_111_1_4 1
Z_336_0_0 0
Z_336_0_1 1
Z_336_0_2 0
Z_336_0_3 0
Z_336_0_4 0
Z_70_0_0 0
Z_70_0_1 0
Z_70_0_2 1
Z_70_0_3 0
Z_70_0_4 0
Z_231_1_0 0
Z_231_1_1 0
Z_231_1_2 0
Z_231_1_3 0
Z_231_1_4 1
Z_231_0_0 0
Z_231_0_1 0
Z_231_0_2 0
Z_231_0_3 0
Z_231_0_4 1
Z_231_2_0 0
Z_231_2_1 0
Z_231_2_2 0
Z_231_2_3 1
Z_231_2_4 0
Z_341_0_0 0
Z_341_0_1 0
Z_341_0_2 0
Z_341_0_3 1
Z_341_0_4 0
Z_78_0_0 0
Z_78_0_1 1
Z_78_0_2 0
Z_78_0_3 0
Z_78_0_4 0
